tp1/exo1/exo1p1.lp
max
 obj: 5x - 3 y
st
 c1: x - y >= 2
 c2: 2x + 3y <= 6
 c3: -x + 5y = 10
bounds
 x >=0
 y free
end
