tp1/exo1/exo1p1.mps
* ENCODING=ISO-8859-1
NAME          exo1p1.lp
ROWS
 N  obj     
 G  c1      
 L  c2      
 L  c3      
COLUMNS
    x         obj                            -5
    x         c1                              1
    x         c2                              2
    x         c3                             -1
    y         obj                             3
    y         c1                             -1
    y         c2                              3
    y         c3                              5
RHS
    rhs       c1                              2
    rhs       c2                              6
    rhs       c3                             10
ENDATA
